25 40
1 2 1
1 6 4
2 3 4
2 7 4
3 4 2
3 8 2
4 5 3
4 9 1
5 10 4
6 7 5
6 11 1
7 8 2
7 12 4
8 9 4
8 13 2
9 10 5
9 14 1
10 15 3
11 12 3
11 16 5
12 13 4
12 17 2
13 14 2
13 18 3
14 15 5
14 19 3
15 20 4
16 17 4
16 21 4
17 18 2
17 22 2
18 19 1
18 23 4
19 20 5
19 24 2
20 25 4
21 22 3
22 23 5
23 24 5
24 25 1
